10
0   5011   2124   3964   8739   3058   6309   4304   8714   588   
5011   0   3965   4350   1375   2691   6828   7538   9218   4168   
2124   3965   0   9776   3873   3049   7496   5397   453   6246   
3964   4350   9776   0   3590   2388   4082   2905   7952   2566   
8739   1375   3873   3590   0   2865   740   3042   5360   5042   
3058   2691   3049   2388   2865   0   6476   3832   361   5798   
6309   6828   7496   4082   740   6476   0   5456   2973   9209   
4304   7538   5397   2905   3042   3832   5456   0   10430   2426   
8714   9218   453   7952   5360   361   2973   10430   0   12823   
588   4168   6246   2566   5042   5798   9209   2426   12823   0   
